p tw 217 531
1 2
1 10
1 12
1 15
1 16
2 10
2 12
2 15
2 16
3 4
3 9
3 11
3 13
3 14
4 9
4 11
4 13
4 14
5 6
5 17
5 18
5 19
5 20
5 21
5 22
6 17
6 18
6 19
6 20
6 21
6 22
7 8
7 23
7 24
8 23
8 24
9 44
10 46
11 48
12 50
13 14
13 15
13 25
13 26
13 29
13 30
14 52
15 16
15 25
15 26
15 29
15 30
16 54
17 18
18 56
19 20
19 61
20 59
21 22
21 23
21 27
21 28
21 31
21 32
22 63
23 24
23 27
23 28
23 31
23 32
24 65
25 26
25 27
26 69
27 28
28 71
29 30
29 31
30 73
31 32
32 75
33 34
33 45
33 46
33 49
33 50
33 53
33 54
34 45
34 46
34 49
34 50
34 53
34 54
35 36
35 43
35 44
35 47
35 48
35 51
35 52
36 43
36 44
36 47
36 48
36 51
36 52
37 38
37 57
37 60
37 61
38 57
38 60
38 61
39 40
39 55
39 56
39 58
39 59
39 62
39 63
40 55
40 56
40 58
40 59
40 62
40 63
41 42
41 64
41 65
42 64
42 65
43 44
43 45
43 66
43 67
44 87
45 46
45 66
45 67
46 89
47 48
48 91
49 50
50 93
51 52
51 53
51 68
51 69
51 72
51 73
52 95
53 54
53 68
53 69
53 72
53 73
54 97
55 56
56 99
57 101
58 59
58 60
59 103
60 61
61 105
62 63
62 64
62 70
62 71
62 74
62 75
63 107
64 65
64 70
64 71
64 74
64 75
65 109
66 111
67 113
68 69
68 70
69 115
70 71
71 117
72 73
73 119
74 75
75 121
76 77
76 88
76 89
76 92
76 93
76 96
76 97
77 88
77 89
77 92
77 93
77 96
77 97
78 79
78 86
78 87
78 90
78 91
78 94
78 95
79 86
79 87
79 90
79 91
79 94
79 95
80 81
80 100
80 101
80 104
80 105
81 100
81 101
81 104
81 105
82 83
82 98
82 99
82 102
82 103
82 106
82 107
83 98
83 99
83 102
83 103
83 106
83 107
84 85
84 108
84 109
85 108
85 109
86 87
86 88
86 110
86 111
86 112
86 113
87 133
88 89
88 110
88 111
88 112
88 113
89 135
90 91
91 137
92 93
93 139
94 95
94 96
94 114
94 115
94 118
94 119
95 141
96 97
96 114
96 115
96 118
96 119
97 143
98 99
99 145
100 101
101 146
102 103
102 104
103 148
104 105
105 150
106 107
106 108
106 116
106 117
106 120
106 121
107 152
108 109
108 116
108 117
108 120
108 121
109 154
110 111
111 155
112 113
113 156
114 115
114 116
115 158
116 117
117 160
118 119
119 162
120 121
121 164
122 123
122 134
122 135
122 138
122 139
122 142
122 143
123 134
123 135
123 138
123 139
123 142
123 143
124 125
124 132
124 133
124 136
124 137
124 140
124 141
125 132
125 133
125 136
125 137
125 140
125 141
126 127
126 146
126 149
126 150
127 146
127 149
127 150
128 129
128 144
128 145
128 147
128 148
128 151
128 152
129 144
129 145
129 147
129 148
129 151
129 152
130 131
130 153
130 154
131 153
131 154
132 133
132 134
132 155
132 156
133 173
134 135
134 155
134 156
135 174
136 137
137 175
138 139
139 176
140 141
140 142
140 157
140 158
140 161
140 162
141 178
142 143
142 157
142 158
142 161
142 162
143 180
144 145
145 182
147 148
147 149
148 184
149 150
150 183
151 152
151 153
151 159
151 160
151 163
151 164
152 186
153 154
153 159
153 160
153 163
153 164
154 188
157 158
157 159
158 190
159 160
160 192
161 162
162 194
163 164
164 196
165 166
165 174
165 176
165 179
165 180
166 174
166 176
166 179
166 180
167 168
167 173
167 175
167 177
167 178
168 173
168 175
168 177
168 178
169 170
169 181
169 182
169 183
169 184
169 185
169 186
170 181
170 182
170 183
170 184
170 185
170 186
171 172
171 187
171 188
172 187
172 188
177 178
177 179
177 189
177 190
177 193
177 194
178 201
179 180
179 189
179 190
179 193
179 194
180 202
181 182
182 204
183 184
184 206
185 186
185 187
185 191
185 192
185 195
185 196
186 208
187 188
187 191
187 192
187 195
187 196
188 210
189 190
189 191
190 212
191 192
192 214
193 194
194 215
195 196
196 217
197 198
197 203
197 204
197 205
197 206
197 207
197 208
198 203
198 204
198 205
198 206
198 207
198 208
199 200
199 209
199 210
200 209
200 210
201 202
201 211
201 212
201 215
202 211
202 212
202 215
203 204
205 206
207 208
207 209
207 213
207 214
207 216
207 217
209 210
209 213
209 214
209 216
209 217
211 212
211 213
213 214
216 217
